# Solution for model TSP0
# Objective value = 3.0176753206639787e+03
C0 0
C1 0
C2 0
C3 0
C4 0
C5 0
C6 0
C7 0
C8 0
C9 0
C10 0
C11 0
C12 0
C13 0
C14 0
C15 1
C16 1
C17 0
C18 0
C19 1
C20 0
C21 0
C22 0
C23 0
C24 0
C25 0
C26 0
C27 0
C28 0
C29 0
C30 0
C31 0
C32 0
C33 0
C34 0
C35 1
C36 0
C37 0
C38 0
C39 0
C40 1
C41 0
C42 0
C43 0
C44 0
C45 0
C46 0
C47 0
C48 0
C49 0
C50 0
C51 0
C52 0
C53 0
C54 0
C55 0
C56 0
C57 0
C58 0
C59 0
C60 1
C61 0
C62 0
C63 0
C64 1
C65 0
C66 0
C67 0
C68 0
C69 0
C70 0
C71 0
C72 1
C73 0
C74 0
C75 0
C76 1
C77 0
C78 0
C79 0
C80 0
C81 0
C82 0
C83 0
C84 0
C85 0
C86 0
C87 0
C88 0
C89 0
C90 0
C91 0
C92 1
C93 0
C94 1
C95 0
C96 0
C97 0
C98 0
C99 0
C100 0
C101 0
C102 0
C103 0
C104 0
C105 0
C106 0
C107 0
C108 0
C109 0
C110 0
C111 1
C112 0
C113 0
C114 0
C115 0
C116 0
C117 0
C118 0
C119 0
C120 0
C121 0
C122 1
C123 0
C124 0
C125 1
C126 1
C127 0
C128 0
C129 0
C130 0
C131 0
C132 0
C133 0
C134 0
C135 0
C136 0
C137 1
C138 1
C139 0
C140 0
C141 0
C142 0
C143 0
C144 0
C145 0
C146 0
C147 0
C148 0
C149 0
C150 0
C151 0
C152 0
C153 0
C154 0
C155 0
C156 0
C157 0
C158 0
C159 0
C160 0
C161 0
C162 0
C163 0
C164 1
C165 0
C166 0
C167 0
C168 0
C169 0
C170 0
C171 0
C172 0
C173 0
C174 0
C175 0
C176 0
C177 0
C178 0
C179 1
C180 0
C181 0
C182 0
C183 0
C184 1
C185 0
C186 0
C187 0
C188 0
C189 0
